(declare-sort $$unsorted 0)
(declare-fun tptp.op ($$unsorted $$unsorted) $$unsorted)
(assert (forall ((X0 $$unsorted) (X1 $$unsorted) (X2 $$unsorted)) (= X0 (tptp.op (tptp.op (tptp.op (tptp.op X0 X1) X2) X2) X2))))
(assert (not (forall ((X0 $$unsorted) (X1 $$unsorted) (X2 $$unsorted)) (= X0 (tptp.op (tptp.op (tptp.op (tptp.op X0 X1) X2) X1) X1)))))
(set-info :filename Equation3095_implies_Equation3090)
(check-sat-assuming ( true ))
